c CNF file corresponding to a (partial) station packing problem.
p cnf 3524 229
3508 3509 3510 3511 3512 3513 3514 3515 3516 3517 3518 3519 3520 3521 3522 3523 3524 0
-3508 -3509 0
-3508 -3510 0
-3508 -3511 0
-3508 -3512 0
-3508 -3513 0
-3508 -3514 0
-3508 -3515 0
-3508 -3516 0
-3508 -3517 0
-3508 -3518 0
-3508 -3519 0
-3508 -3520 0
-3508 -3521 0
-3508 -3522 0
-3508 -3523 0
-3508 -3524 0
-3509 -3510 0
-3509 -3511 0
-3509 -3512 0
-3509 -3513 0
-3509 -3514 0
-3509 -3515 0
-3509 -3516 0
-3509 -3517 0
-3509 -3518 0
-3509 -3519 0
-3509 -3520 0
-3509 -3521 0
-3509 -3522 0
-3509 -3523 0
-3509 -3524 0
-3510 -3511 0
-3510 -3512 0
-3510 -3513 0
-3510 -3514 0
-3510 -3515 0
-3510 -3516 0
-3510 -3517 0
-3510 -3518 0
-3510 -3519 0
-3510 -3520 0
-3510 -3521 0
-3510 -3522 0
-3510 -3523 0
-3510 -3524 0
-3511 -3512 0
-3511 -3513 0
-3511 -3514 0
-3511 -3515 0
-3511 -3516 0
-3511 -3517 0
-3511 -3518 0
-3511 -3519 0
-3511 -3520 0
-3511 -3521 0
-3511 -3522 0
-3511 -3523 0
-3511 -3524 0
-3512 -3513 0
-3512 -3514 0
-3512 -3515 0
-3512 -3516 0
-3512 -3517 0
-3512 -3518 0
-3512 -3519 0
-3512 -3520 0
-3512 -3521 0
-3512 -3522 0
-3512 -3523 0
-3512 -3524 0
-3513 -3514 0
-3513 -3515 0
-3513 -3516 0
-3513 -3517 0
-3513 -3518 0
-3513 -3519 0
-3513 -3520 0
-3513 -3521 0
-3513 -3522 0
-3513 -3523 0
-3513 -3524 0
-3514 -3515 0
-3514 -3516 0
-3514 -3517 0
-3514 -3518 0
-3514 -3519 0
-3514 -3520 0
-3514 -3521 0
-3514 -3522 0
-3514 -3523 0
-3514 -3524 0
-3515 -3516 0
-3515 -3517 0
-3515 -3518 0
-3515 -3519 0
-3515 -3520 0
-3515 -3521 0
-3515 -3522 0
-3515 -3523 0
-3515 -3524 0
-3516 -3517 0
-3516 -3518 0
-3516 -3519 0
-3516 -3520 0
-3516 -3521 0
-3516 -3522 0
-3516 -3523 0
-3516 -3524 0
-3517 -3518 0
-3517 -3519 0
-3517 -3520 0
-3517 -3521 0
-3517 -3522 0
-3517 -3523 0
-3517 -3524 0
-3518 -3519 0
-3518 -3520 0
-3518 -3521 0
-3518 -3522 0
-3518 -3523 0
-3518 -3524 0
-3519 -3520 0
-3519 -3521 0
-3519 -3522 0
-3519 -3523 0
-3519 -3524 0
-3520 -3521 0
-3520 -3522 0
-3520 -3523 0
-3520 -3524 0
-3521 -3522 0
-3521 -3523 0
-3521 -3524 0
-3522 -3523 0
-3522 -3524 0
-3523 -3524 0
1 2 3 4 5 6 7 8 9 10 11 12 13 14 0
-1 -2 0
-1 -3 0
-1 -4 0
-1 -5 0
-1 -6 0
-1 -7 0
-1 -8 0
-1 -9 0
-1 -10 0
-1 -11 0
-1 -12 0
-1 -13 0
-1 -14 0
-2 -3 0
-2 -4 0
-2 -5 0
-2 -6 0
-2 -7 0
-2 -8 0
-2 -9 0
-2 -10 0
-2 -11 0
-2 -12 0
-2 -13 0
-2 -14 0
-3 -4 0
-3 -5 0
-3 -6 0
-3 -7 0
-3 -8 0
-3 -9 0
-3 -10 0
-3 -11 0
-3 -12 0
-3 -13 0
-3 -14 0
-4 -5 0
-4 -6 0
-4 -7 0
-4 -8 0
-4 -9 0
-4 -10 0
-4 -11 0
-4 -12 0
-4 -13 0
-4 -14 0
-5 -6 0
-5 -7 0
-5 -8 0
-5 -9 0
-5 -10 0
-5 -11 0
-5 -12 0
-5 -13 0
-5 -14 0
-6 -7 0
-6 -8 0
-6 -9 0
-6 -10 0
-6 -11 0
-6 -12 0
-6 -13 0
-6 -14 0
-7 -8 0
-7 -9 0
-7 -10 0
-7 -11 0
-7 -12 0
-7 -13 0
-7 -14 0
-8 -9 0
-8 -10 0
-8 -11 0
-8 -12 0
-8 -13 0
-8 -14 0
-9 -10 0
-9 -11 0
-9 -12 0
-9 -13 0
-9 -14 0
-10 -11 0
-10 -12 0
-10 -13 0
-10 -14 0
-11 -12 0
-11 -13 0
-11 -14 0
-12 -13 0
-12 -14 0
-13 -14 0
